27	3
5	7	7	
0	0	0	0	25	2	3	4	5	6	7	8	9	10	11	12	13	14	15	16	17	18	19	20	21	22	23	24	25	26	
2	1	2	1	1	27	
3	4	2	1	1	20	
2	3	2	2	1	27	
250	1	2	2	1	11	
2	3	1	1	1	27	
3	2	1	1	1	14	
213	2	1	1	1	27	
176	2	1	2	1	24	
5	1	2	2	1	27	
208	2	2	1	1	27	
6	2	2	1	1	27	
239	3	2	2	1	27	
4	3	2	1	1	27	
111	3	2	2	1	16	
5	3	2	2	1	27	
3	4	2	1	1	27	
200	3	1	2	1	23	
111	2	2	2	1	27	
283	2	1	2	1	27	
3	1	2	1	1	22	
5	5	1	1	1	24	
3	4	1	2	1	27	
2	3	1	1	1	27	
59	2	1	2	1	27	
113	5	1	1	1	27	
0	0	0	0	0	